letting n =  10
letting blocks =  [[1, 2], [2, 5], [2, 8], [3, 9], [3, 10], [4, 5], [4, 7], [4, 8], [4, 10], [5, 1], [5, 4], [5, 10], [6, 5], [6, 7], [6, 9], [7, 2], [7, 3], [7, 5], [8, 2], [9, 3], [9, 7], [10, 2], [10, 8], [10, 9]]
